
-7.8
-7.3
-7.2
-6.9
-6.8
-6.7
-6.6
-6.6
-6.5
-6.3
-6.2
-6.2
-6.2
-6.2
-6.1
-6.1
-6.0
-5.9
-5.9
-5.8
-5.8
-5.8
-5.7
-5.7
-5.7
-5.7
-5.6
-5.6
-5.6
-5.6
-5.6
-5.6
-5.6
-5.6
-5.6
-5.6
-5.6
-5.6
-7.4
-7.05
-7.05
-7.0
-6.95
-6.85
-6.75
-6.75
-6.75
-6.7
-6.7
-6.35
-6.0
-6.0
-6.0
-6.0
-6.0
-6.0
-5.85
-5.8
-5.8
-5.8
-5.8
-5.8
-5.75
-5.75
-5.75
-5.75
-5.75
-5.75
-5.75
-5.75